num_offers = 40;
num_halls = 10;
start=[42,7,1,78,25,4,15,12,31,72,7,36,31,37,31,44,10,68,41,52,16,31,21,11,26,86,6,63,19,50,19,26,87,62,32,88,7,82,74,51];
end=[82,57,28,85,54,49,35,19,77,100,36,56,50,97,41,71,30,86,60,90,59,85,88,61,96,95,67,100,26,63,32,61,96,72,81,100,61,95,100,53];
price=[1881,1761,1308,475,1723,2240,1393,775,4048,2166,2818,1120,1138,655,675,2566,370,950,1686,1606,2738,1041,2127,3204,1097,960,2858,1371,570,286,282,1823,631,270,3922,318,698,149,2125,47];
requirement=[408,424,856,809,633,610,922,458,397,970,904,940,565,543,503,615,585,510,642,361,779,572,661,796,785,257,342,499,924,302,519,603,658,417,775,497,392,832,563,883];
capacity=[869,485,906,357,992,528,453,721,260,630];
